p cnf 200 1110
-101 54 0
-101 -14 0
-101 -1 0
-101 7 0
-101 -86 0
-101 84 0
-101 9 0
-101 40 0
-101 22 0
-101 29 0
101 -54 14 1 -7 86 -84 -9 -40 -22 -29 0
-102 84 0
-102 46 0
-102 93 0
-102 -21 0
-102 -34 0
-102 68 0
-102 -43 0
-102 -83 0
-102 -7 0
-102 -49 0
102 -84 -46 -93 21 34 -68 43 83 7 49 0
-103 -78 0
-103 -25 0
-103 -20 0
-103 28 0
-103 -100 0
-103 -80 0
-103 -17 0
-103 59 0
-103 -5 0
-103 -6 0
103 78 25 20 -28 100 80 17 -59 5 6 0
-104 -55 0
-104 93 0
-104 31 0
-104 42 0
-104 -94 0
-104 -90 0
-104 -62 0
-104 24 0
-104 89 0
-104 -92 0
104 55 -93 -31 -42 94 90 62 -24 -89 92 0
-105 78 0
-105 -34 0
-105 -10 0
-105 5 0
-105 -90 0
-105 3 0
-105 17 0
-105 -97 0
-105 8 0
-105 -89 0
105 -78 34 10 -5 90 -3 -17 97 -8 89 0
-106 -5 0
-106 91 0
-106 -14 0
-106 56 0
-106 20 0
-106 -24 0
-106 84 0
-106 43 0
-106 -81 0
-106 -61 0
106 5 -91 14 -56 -20 24 -84 -43 81 61 0
-107 -73 0
-107 -56 0
-107 70 0
-107 67 0
-107 -57 0
-107 84 0
-107 9 0
-107 -34 0
-107 -45 0
-107 50 0
107 73 56 -70 -67 57 -84 -9 34 45 -50 0
-108 93 0
-108 16 0
-108 -31 0
-108 83 0
-108 -24 0
-108 -61 0
-108 9 0
-108 -40 0
-108 7 0
-108 -55 0
108 -93 -16 31 -83 24 61 -9 40 -7 55 0
-109 -63 0
-109 1 0
-109 -79 0
-109 -77 0
-109 -99 0
-109 -57 0
-109 -11 0
-109 13 0
-109 47 0
-109 93 0
109 63 -1 79 77 99 57 11 -13 -47 -93 0
-110 77 0
-110 99 0
-110 -26 0
-110 -92 0
-110 -76 0
-110 -93 0
-110 -68 0
-110 98 0
-110 21 0
-110 14 0
110 -77 -99 26 92 76 93 68 -98 -21 -14 0
101 102 103 104 105 106 107 108 109 110 0
-111 -7 0
-111 -28 0
-111 -34 0
-111 53 0
-111 29 0
-111 5 0
-111 1 0
-111 -67 0
-111 54 0
-111 -41 0
111 7 28 34 -53 -29 -5 -1 67 -54 41 0
-112 -20 0
-112 -71 0
-112 -73 0
-112 98 0
-112 -34 0
-112 -11 0
-112 -56 0
-112 -100 0
-112 41 0
-112 27 0
112 20 71 73 -98 34 11 56 100 -41 -27 0
-113 -76 0
-113 -63 0
-113 -55 0
-113 96 0
-113 88 0
-113 -56 0
-113 -7 0
-113 91 0
-113 -22 0
-113 -39 0
113 76 63 55 -96 -88 56 7 -91 22 39 0
-114 11 0
-114 -94 0
-114 39 0
-114 89 0
-114 84 0
-114 79 0
-114 70 0
-114 98 0
-114 -3 0
-114 -54 0
114 -11 94 -39 -89 -84 -79 -70 -98 3 54 0
-115 6 0
-115 -96 0
-115 -24 0
-115 57 0
-115 70 0
-115 81 0
-115 11 0
-115 -51 0
-115 17 0
-115 -3 0
115 -6 96 24 -57 -70 -81 -11 51 -17 3 0
-116 -29 0
-116 -27 0
-116 52 0
-116 79 0
-116 -81 0
-116 100 0
-116 76 0
-116 88 0
-116 93 0
-116 24 0
116 29 27 -52 -79 81 -100 -76 -88 -93 -24 0
-117 43 0
-117 -70 0
-117 -60 0
-117 30 0
-117 37 0
-117 77 0
-117 86 0
-117 -14 0
-117 -97 0
-117 -81 0
117 -43 70 60 -30 -37 -77 -86 14 97 81 0
-118 -29 0
-118 -69 0
-118 79 0
-118 -2 0
-118 96 0
-118 76 0
-118 -85 0
-118 -71 0
-118 12 0
-118 -44 0
118 29 69 -79 2 -96 -76 85 71 -12 44 0
-119 92 0
-119 80 0
-119 28 0
-119 52 0
-119 -89 0
-119 34 0
-119 -87 0
-119 -24 0
-119 6 0
-119 -38 0
119 -92 -80 -28 -52 89 -34 87 24 -6 38 0
-120 -10 0
-120 53 0
-120 12 0
-120 28 0
-120 48 0
-120 63 0
-120 -81 0
-120 -20 0
-120 -56 0
-120 -2 0
120 10 -53 -12 -28 -48 -63 81 20 56 2 0
111 112 113 114 115 116 117 118 119 120 0
-121 -60 0
-121 -73 0
-121 -31 0
-121 24 0
-121 66 0
-121 -35 0
-121 71 0
-121 83 0
-121 -10 0
-121 39 0
121 60 73 31 -24 -66 35 -71 -83 10 -39 0
-122 93 0
-122 52 0
-122 97 0
-122 -88 0
-122 38 0
-122 -76 0
-122 59 0
-122 80 0
-122 82 0
-122 -36 0
122 -93 -52 -97 88 -38 76 -59 -80 -82 36 0
-123 43 0
-123 -68 0
-123 -5 0
-123 40 0
-123 85 0
-123 -6 0
-123 44 0
-123 -86 0
-123 -15 0
-123 -64 0
123 -43 68 5 -40 -85 6 -44 86 15 64 0
-124 22 0
-124 -69 0
-124 74 0
-124 48 0
-124 24 0
-124 96 0
-124 52 0
-124 32 0
-124 -87 0
-124 -66 0
124 -22 69 -74 -48 -24 -96 -52 -32 87 66 0
-125 -65 0
-125 -85 0
-125 10 0
-125 9 0
-125 84 0
-125 93 0
-125 -18 0
-125 73 0
-125 4 0
-125 94 0
125 65 85 -10 -9 -84 -93 18 -73 -4 -94 0
-126 -88 0
-126 -24 0
-126 -85 0
-126 -19 0
-126 -87 0
-126 69 0
-126 -27 0
-126 43 0
-126 20 0
-126 7 0
126 88 24 85 19 87 -69 27 -43 -20 -7 0
-127 95 0
-127 -43 0
-127 -39 0
-127 29 0
-127 -6 0
-127 70 0
-127 -89 0
-127 16 0
-127 -27 0
-127 92 0
127 -95 43 39 -29 6 -70 89 -16 27 -92 0
-128 90 0
-128 94 0
-128 -14 0
-128 -41 0
-128 98 0
-128 -75 0
-128 -16 0
-128 -61 0
-128 -85 0
-128 67 0
128 -90 -94 14 41 -98 75 16 61 85 -67 0
-129 -51 0
-129 -72 0
-129 -5 0
-129 21 0
-129 25 0
-129 92 0
-129 -84 0
-129 -95 0
-129 -98 0
-129 -87 0
129 51 72 5 -21 -25 -92 84 95 98 87 0
-130 -40 0
-130 -61 0
-130 68 0
-130 52 0
-130 49 0
-130 -85 0
-130 -72 0
-130 15 0
-130 -98 0
-130 -21 0
130 40 61 -68 -52 -49 85 72 -15 98 21 0
121 122 123 124 125 126 127 128 129 130 0
-131 -9 0
-131 66 0
-131 -40 0
-131 36 0
-131 6 0
-131 -21 0
-131 52 0
-131 -8 0
-131 58 0
-131 -41 0
131 9 -66 40 -36 -6 21 -52 8 -58 41 0
-132 -85 0
-132 -88 0
-132 45 0
-132 6 0
-132 -35 0
-132 25 0
-132 55 0
-132 23 0
-132 54 0
-132 -40 0
132 85 88 -45 -6 35 -25 -55 -23 -54 40 0
-133 -23 0
-133 -33 0
-133 -4 0
-133 58 0
-133 76 0
-133 7 0
-133 -99 0
-133 -100 0
-133 -46 0
-133 70 0
133 23 33 4 -58 -76 -7 99 100 46 -70 0
-134 25 0
-134 -65 0
-134 -11 0
-134 24 0
-134 -74 0
-134 56 0
-134 -72 0
-134 -58 0
-134 -54 0
-134 -29 0
134 -25 65 11 -24 74 -56 72 58 54 29 0
-135 -99 0
-135 -44 0
-135 -8 0
-135 28 0
-135 -68 0
-135 57 0
-135 -75 0
-135 -76 0
-135 -2 0
-135 62 0
135 99 44 8 -28 68 -57 75 76 2 -62 0
-136 -74 0
-136 -71 0
-136 12 0
-136 13 0
-136 49 0
-136 80 0
-136 30 0
-136 -87 0
-136 77 0
-136 -66 0
136 74 71 -12 -13 -49 -80 -30 87 -77 66 0
-137 -79 0
-137 -81 0
-137 -1 0
-137 48 0
-137 62 0
-137 20 0
-137 -11 0
-137 -93 0
-137 -40 0
-137 -54 0
137 79 81 1 -48 -62 -20 11 93 40 54 0
-138 59 0
-138 -99 0
-138 98 0
-138 42 0
-138 20 0
-138 62 0
-138 -68 0
-138 -64 0
-138 91 0
-138 39 0
138 -59 99 -98 -42 -20 -62 68 64 -91 -39 0
-139 70 0
-139 -43 0
-139 29 0
-139 39 0
-139 75 0
-139 -80 0
-139 42 0
-139 -98 0
-139 -2 0
-139 91 0
139 -70 43 -29 -39 -75 80 -42 98 2 -91 0
-140 -90 0
-140 -62 0
-140 42 0
-140 -94 0
-140 -37 0
-140 44 0
-140 -63 0
-140 3 0
-140 48 0
-140 19 0
140 90 62 -42 94 37 -44 63 -3 -48 -19 0
131 132 133 134 135 136 137 138 139 140 0
-141 55 0
-141 94 0
-141 -25 0
-141 -32 0
-141 20 0
-141 -91 0
-141 31 0
-141 -84 0
-141 83 0
-141 -21 0
141 -55 -94 25 32 -20 91 -31 84 -83 21 0
-142 -37 0
-142 -57 0
-142 56 0
-142 83 0
-142 6 0
-142 -66 0
-142 -15 0
-142 -94 0
-142 -53 0
-142 21 0
142 37 57 -56 -83 -6 66 15 94 53 -21 0
-143 -2 0
-143 -5 0
-143 27 0
-143 45 0
-143 -40 0
-143 79 0
-143 10 0
-143 -34 0
-143 39 0
-143 14 0
143 2 5 -27 -45 40 -79 -10 34 -39 -14 0
-144 -54 0
-144 38 0
-144 -23 0
-144 28 0
-144 56 0
-144 79 0
-144 -45 0
-144 50 0
-144 98 0
-144 49 0
144 54 -38 23 -28 -56 -79 45 -50 -98 -49 0
-145 -64 0
-145 -47 0
-145 -8 0
-145 63 0
-145 40 0
-145 7 0
-145 39 0
-145 -34 0
-145 -32 0
-145 17 0
145 64 47 8 -63 -40 -7 -39 34 32 -17 0
-146 -89 0
-146 -67 0
-146 38 0
-146 -91 0
-146 -62 0
-146 -59 0
-146 -99 0
-146 -7 0
-146 -27 0
-146 55 0
146 89 67 -38 91 62 59 99 7 27 -55 0
-147 -66 0
-147 -89 0
-147 -86 0
-147 -19 0
-147 73 0
-147 -25 0
-147 82 0
-147 96 0
-147 -77 0
-147 95 0
147 66 89 86 19 -73 25 -82 -96 77 -95 0
-148 57 0
-148 67 0
-148 -48 0
-148 -59 0
-148 -26 0
-148 73 0
-148 98 0
-148 45 0
-148 -2 0
-148 -35 0
148 -57 -67 48 59 26 -73 -98 -45 2 35 0
-149 -2 0
-149 51 0
-149 -89 0
-149 70 0
-149 56 0
-149 84 0
-149 -76 0
-149 -94 0
-149 -79 0
-149 -40 0
149 2 -51 89 -70 -56 -84 76 94 79 40 0
-150 99 0
-150 59 0
-150 38 0
-150 -86 0
-150 17 0
-150 72 0
-150 -84 0
-150 -24 0
-150 36 0
-150 13 0
150 -99 -59 -38 86 -17 -72 84 24 -36 -13 0
141 142 143 144 145 146 147 148 149 150 0
-151 -15 0
-151 -62 0
-151 -81 0
-151 -99 0
-151 1 0
-151 -34 0
-151 -45 0
-151 28 0
-151 96 0
-151 12 0
151 15 62 81 99 -1 34 45 -28 -96 -12 0
-152 95 0
-152 -38 0
-152 1 0
-152 39 0
-152 57 0
-152 5 0
-152 -75 0
-152 -63 0
-152 82 0
-152 -17 0
152 -95 38 -1 -39 -57 -5 75 63 -82 17 0
-153 -13 0
-153 100 0
-153 59 0
-153 45 0
-153 26 0
-153 81 0
-153 77 0
-153 89 0
-153 -58 0
-153 11 0
153 13 -100 -59 -45 -26 -81 -77 -89 58 -11 0
-154 -20 0
-154 -13 0
-154 68 0
-154 9 0
-154 -47 0
-154 -22 0
-154 84 0
-154 -79 0
-154 36 0
-154 94 0
154 20 13 -68 -9 47 22 -84 79 -36 -94 0
-155 -96 0
-155 13 0
-155 62 0
-155 -69 0
-155 61 0
-155 -14 0
-155 -51 0
-155 92 0
-155 28 0
-155 -55 0
155 96 -13 -62 69 -61 14 51 -92 -28 55 0
-156 85 0
-156 11 0
-156 87 0
-156 48 0
-156 -23 0
-156 -24 0
-156 -95 0
-156 59 0
-156 19 0
-156 -18 0
156 -85 -11 -87 -48 23 24 95 -59 -19 18 0
-157 49 0
-157 -2 0
-157 -78 0
-157 60 0
-157 -59 0
-157 -6 0
-157 100 0
-157 54 0
-157 29 0
-157 30 0
157 -49 2 78 -60 59 6 -100 -54 -29 -30 0
-158 -99 0
-158 -77 0
-158 86 0
-158 -96 0
-158 -82 0
-158 -17 0
-158 26 0
-158 20 0
-158 21 0
-158 -35 0
158 99 77 -86 96 82 17 -26 -20 -21 35 0
-159 84 0
-159 6 0
-159 -65 0
-159 49 0
-159 -31 0
-159 62 0
-159 -58 0
-159 66 0
-159 50 0
-159 68 0
159 -84 -6 65 -49 31 -62 58 -66 -50 -68 0
-160 -80 0
-160 -100 0
-160 25 0
-160 43 0
-160 -4 0
-160 72 0
-160 15 0
-160 71 0
-160 -66 0
-160 -82 0
160 80 100 -25 -43 4 -72 -15 -71 66 82 0
151 152 153 154 155 156 157 158 159 160 0
-161 -59 0
-161 -68 0
-161 -87 0
-161 19 0
-161 -32 0
-161 30 0
-161 57 0
-161 -60 0
-161 13 0
-161 42 0
161 59 68 87 -19 32 -30 -57 60 -13 -42 0
-162 62 0
-162 -77 0
-162 -46 0
-162 -65 0
-162 44 0
-162 59 0
-162 19 0
-162 -17 0
-162 -26 0
-162 89 0
162 -62 77 46 65 -44 -59 -19 17 26 -89 0
-163 -42 0
-163 65 0
-163 -56 0
-163 99 0
-163 -6 0
-163 -62 0
-163 87 0
-163 47 0
-163 72 0
-163 89 0
163 42 -65 56 -99 6 62 -87 -47 -72 -89 0
-164 -91 0
-164 80 0
-164 86 0
-164 -49 0
-164 -44 0
-164 -97 0
-164 76 0
-164 -67 0
-164 79 0
-164 20 0
164 91 -80 -86 49 44 97 -76 67 -79 -20 0
-165 -29 0
-165 86 0
-165 -79 0
-165 33 0
-165 -53 0
-165 -74 0
-165 -59 0
-165 -2 0
-165 26 0
-165 -39 0
165 29 -86 79 -33 53 74 59 2 -26 39 0
-166 -81 0
-166 -54 0
-166 25 0
-166 -69 0
-166 6 0
-166 -43 0
-166 -87 0
-166 47 0
-166 -5 0
-166 82 0
166 81 54 -25 69 -6 43 87 -47 5 -82 0
-167 -29 0
-167 58 0
-167 -65 0
-167 -56 0
-167 -86 0
-167 64 0
-167 60 0
-167 -84 0
-167 -74 0
-167 23 0
167 29 -58 65 56 86 -64 -60 84 74 -23 0
-168 -56 0
-168 97 0
-168 -43 0
-168 -65 0
-168 48 0
-168 14 0
-168 -29 0
-168 -23 0
-168 -69 0
-168 -70 0
168 56 -97 43 65 -48 -14 29 23 69 70 0
-169 -27 0
-169 56 0
-169 -35 0
-169 31 0
-169 37 0
-169 -80 0
-169 95 0
-169 36 0
-169 -93 0
-169 -55 0
169 27 -56 35 -31 -37 80 -95 -36 93 55 0
-170 -88 0
-170 -9 0
-170 -92 0
-170 -10 0
-170 59 0
-170 -100 0
-170 28 0
-170 82 0
-170 93 0
-170 -3 0
170 88 9 92 10 -59 100 -28 -82 -93 3 0
161 162 163 164 165 166 167 168 169 170 0
-171 -19 0
-171 -75 0
-171 -58 0
-171 -29 0
-171 -93 0
-171 -73 0
-171 35 0
-171 -22 0
-171 86 0
-171 -36 0
171 19 75 58 29 93 73 -35 22 -86 36 0
-172 -43 0
-172 -35 0
-172 74 0
-172 89 0
-172 -83 0
-172 -14 0
-172 -42 0
-172 -31 0
-172 -15 0
-172 -55 0
172 43 35 -74 -89 83 14 42 31 15 55 0
-173 99 0
-173 3 0
-173 -88 0
-173 52 0
-173 64 0
-173 -40 0
-173 -22 0
-173 -29 0
-173 73 0
-173 13 0
173 -99 -3 88 -52 -64 40 22 29 -73 -13 0
-174 -61 0
-174 12 0
-174 -80 0
-174 -52 0
-174 86 0
-174 56 0
-174 -53 0
-174 35 0
-174 -76 0
-174 -11 0
174 61 -12 80 52 -86 -56 53 -35 76 11 0
-175 11 0
-175 26 0
-175 88 0
-175 -89 0
-175 -1 0
-175 6 0
-175 79 0
-175 8 0
-175 -96 0
-175 -25 0
175 -11 -26 -88 89 1 -6 -79 -8 96 25 0
-176 61 0
-176 -3 0
-176 98 0
-176 84 0
-176 86 0
-176 -2 0
-176 9 0
-176 -59 0
-176 94 0
-176 14 0
176 -61 3 -98 -84 -86 2 -9 59 -94 -14 0
-177 -43 0
-177 -77 0
-177 -34 0
-177 -70 0
-177 18 0
-177 62 0
-177 89 0
-177 86 0
-177 82 0
-177 47 0
177 43 77 34 70 -18 -62 -89 -86 -82 -47 0
-178 -5 0
-178 52 0
-178 -33 0
-178 50 0
-178 -54 0
-178 -28 0
-178 -27 0
-178 -69 0
-178 76 0
-178 39 0
178 5 -52 33 -50 54 28 27 69 -76 -39 0
-179 3 0
-179 49 0
-179 38 0
-179 -57 0
-179 -21 0
-179 -36 0
-179 71 0
-179 -99 0
-179 -44 0
-179 -17 0
179 -3 -49 -38 57 21 36 -71 99 44 17 0
-180 89 0
-180 -27 0
-180 -96 0
-180 -12 0
-180 -70 0
-180 -9 0
-180 -2 0
-180 -52 0
-180 -24 0
-180 10 0
180 -89 27 96 12 70 9 2 52 24 -10 0
171 172 173 174 175 176 177 178 179 180 0
-181 -62 0
-181 -17 0
-181 -23 0
-181 -91 0
-181 86 0
-181 7 0
-181 -65 0
-181 21 0
-181 11 0
-181 -92 0
181 62 17 23 91 -86 -7 65 -21 -11 92 0
-182 -95 0
-182 100 0
-182 10 0
-182 66 0
-182 35 0
-182 -36 0
-182 -64 0
-182 78 0
-182 -87 0
-182 -75 0
182 95 -100 -10 -66 -35 36 64 -78 87 75 0
-183 19 0
-183 66 0
-183 53 0
-183 -34 0
-183 -59 0
-183 28 0
-183 -64 0
-183 92 0
-183 -95 0
-183 -78 0
183 -19 -66 -53 34 59 -28 64 -92 95 78 0
-184 -14 0
-184 -20 0
-184 -7 0
-184 -2 0
-184 58 0
-184 -13 0
-184 32 0
-184 -24 0
-184 -85 0
-184 49 0
184 14 20 7 2 -58 13 -32 24 85 -49 0
-185 30 0
-185 -21 0
-185 14 0
-185 -92 0
-185 -99 0
-185 20 0
-185 96 0
-185 -84 0
-185 -70 0
-185 8 0
185 -30 21 -14 92 99 -20 -96 84 70 -8 0
-186 -64 0
-186 -56 0
-186 -4 0
-186 -35 0
-186 33 0
-186 59 0
-186 -54 0
-186 70 0
-186 17 0
-186 39 0
186 64 56 4 35 -33 -59 54 -70 -17 -39 0
-187 -38 0
-187 -67 0
-187 -51 0
-187 100 0
-187 -25 0
-187 -13 0
-187 1 0
-187 -72 0
-187 77 0
-187 -69 0
187 38 67 51 -100 25 13 -1 72 -77 69 0
-188 -77 0
-188 -98 0
-188 18 0
-188 84 0
-188 -17 0
-188 -45 0
-188 97 0
-188 49 0
-188 -16 0
-188 -44 0
188 77 98 -18 -84 17 45 -97 -49 16 44 0
-189 -29 0
-189 89 0
-189 -81 0
-189 5 0
-189 -51 0
-189 -98 0
-189 68 0
-189 76 0
-189 23 0
-189 67 0
189 29 -89 81 -5 51 98 -68 -76 -23 -67 0
-190 -38 0
-190 -43 0
-190 11 0
-190 -48 0
-190 75 0
-190 -64 0
-190 -18 0
-190 96 0
-190 76 0
-190 68 0
190 38 43 -11 48 -75 64 18 -96 -76 -68 0
181 182 183 184 185 186 187 188 189 190 0
-191 30 0
-191 37 0
-191 -94 0
-191 98 0
-191 41 0
-191 -71 0
-191 -38 0
-191 92 0
-191 14 0
-191 4 0
191 -30 -37 94 -98 -41 71 38 -92 -14 -4 0
-192 10 0
-192 71 0
-192 20 0
-192 -90 0
-192 -39 0
-192 -57 0
-192 -91 0
-192 -43 0
-192 -42 0
-192 -21 0
192 -10 -71 -20 90 39 57 91 43 42 21 0
-193 -46 0
-193 65 0
-193 83 0
-193 29 0
-193 16 0
-193 -49 0
-193 -70 0
-193 14 0
-193 26 0
-193 -81 0
193 46 -65 -83 -29 -16 49 70 -14 -26 81 0
-194 68 0
-194 84 0
-194 -28 0
-194 76 0
-194 69 0
-194 -53 0
-194 13 0
-194 -62 0
-194 65 0
-194 57 0
194 -68 -84 28 -76 -69 53 -13 62 -65 -57 0
-195 97 0
-195 71 0
-195 64 0
-195 72 0
-195 -82 0
-195 78 0
-195 99 0
-195 28 0
-195 -2 0
-195 52 0
195 -97 -71 -64 -72 82 -78 -99 -28 2 -52 0
-196 -78 0
-196 -18 0
-196 -53 0
-196 -20 0
-196 -70 0
-196 -38 0
-196 65 0
-196 -17 0
-196 -98 0
-196 49 0
196 78 18 53 20 70 38 -65 17 98 -49 0
-197 82 0
-197 -89 0
-197 -24 0
-197 -100 0
-197 -76 0
-197 50 0
-197 -27 0
-197 4 0
-197 58 0
-197 81 0
197 -82 89 24 100 76 -50 27 -4 -58 -81 0
-198 92 0
-198 86 0
-198 -78 0
-198 28 0
-198 2 0
-198 61 0
-198 70 0
-198 9 0
-198 -23 0
-198 -4 0
198 -92 -86 78 -28 -2 -61 -70 -9 23 4 0
-199 66 0
-199 47 0
-199 -2 0
-199 -79 0
-199 97 0
-199 -93 0
-199 -45 0
-199 -31 0
-199 55 0
-199 -12 0
199 -66 -47 2 79 -97 93 45 31 -55 12 0
-200 46 0
-200 12 0
-200 -5 0
-200 39 0
-200 -20 0
-200 49 0
-200 -69 0
-200 86 0
-200 -77 0
-200 -64 0
200 -46 -12 5 -39 20 -49 69 -86 77 64 0
191 192 193 194 195 196 197 198 199 200 0
